qbf_easy_train/easy_3367_SAT.qdimacs
p cnf 22 52
a 17 12 21 0
e 1 2 3 4 5 6 7 8 9 10 11 13 14 15 16 18 19 20 22 0
3 -1 0
3 2 0
1 -2 -3 0
5 4 0
5 -2 0
-4 2 -5 0
8 -6 0
8 7 0
6 -7 -8 0
9 5 0
9 -8 0
-5 8 -9 0
-3 -9 -10 0
3 9 -10 0
-3 9 10 0
3 -9 10 0
-11 6 -12 0
11 -6 -12 0
-11 -6 12 0
11 6 12 0
13 2 0
13 12 0
-2 -12 -13 0
15 -4 0
15 14 0
4 -14 -15 0
-16 1 0
-16 1 0
-1 16 0
17 -15 0
17 -16 0
15 16 -17 0
18 13 0
18 -17 0
-13 17 -18 0
-20 7 0
-20 -19 0
-7 19 20 0
-18 20 -21 0
18 -20 -21 0
-18 -20 21 0
18 20 21 0
10 -21 -22 0
-10 21 -22 0
10 21 22 0
-10 -21 22 0
-5 -8 2 1 -4 -13 0
20 -8 22 -21 -11 0
-1 19 10 11 -13 12 14 -6 0
17 -10 -6 2 13 -14 12 0
-17 -4 0
22 0
