sat_easy_train/easy_3367_SAT.dimacs
p cnf 100 323
-2 1 0
-2 1 0
-1 2 0
4 2 0
4 3 0
-2 -3 -4 0
11 -10 0
11 7 0
10 -7 -11 0
9 11 -12 0
-9 -11 -12 0
9 -11 12 0
-9 11 12 0
13 -8 0
13 12 0
8 -12 -13 0
11 12 -14 0
-11 -12 -14 0
11 -12 14 0
-11 12 14 0
-15 13 0
-15 -14 0
-13 14 15 0
16 7 0
16 -15 0
-7 15 -16 0
6 16 -17 0
-6 -16 -17 0
6 -16 17 0
-6 16 17 0
-18 5 0
-18 17 0
-5 -17 18 0
6 19 -20 0
-6 -19 -20 0
6 -19 20 0
-6 19 20 0
7 -20 -21 0
-7 20 -21 0
7 20 21 0
-7 -20 21 0
22 -5 0
22 -21 0
5 21 -22 0
23 -6 -24 0
-23 6 -24 0
23 6 24 0
-23 -6 24 0
-22 -24 -25 0
22 24 -25 0
-22 24 25 0
22 -24 25 0
-18 25 -26 0
18 -25 -26 0
-18 -25 26 0
18 25 26 0
-4 26 -27 0
4 -26 -27 0
-4 -26 27 0
4 26 27 0
-28 -6 0
-28 6 0
-30 28 0
-30 29 0
-28 -29 30 0
-31 19 0
-31 -23 0
-19 23 31 0
32 31 0
32 -1 0
-31 1 -32 0
33 12 0
33 32 0
-12 -32 -33 0
35 -10 0
35 -2 0
10 2 -35 0
-36 -2 0
-36 -20 0
2 20 36 0
-35 36 -37 0
35 -36 -37 0
-35 -36 37 0
35 36 37 0
37 -16 -38 0
-37 16 -38 0
37 16 38 0
-37 -16 38 0
39 14 0
39 -38 0
-14 38 -39 0
40 -34 0
40 39 0
34 -39 -40 0
-42 -5 0
-42 41 0
5 -41 42 0
-43 -41 0
-43 -42 0
41 42 43 0
-44 -40 0
-44 43 0
40 -43 44 0
45 33 0
45 44 0
-33 -44 -45 0
-47 1 0
-47 -20 0
-1 20 47 0
-46 47 -48 0
46 -47 -48 0
-46 -47 48 0
46 47 48 0
-49 -45 0
-49 -48 0
45 48 49 0
-51 -20 0
-51 -50 0
20 50 51 0
-49 51 -52 0
49 -51 -52 0
-49 -51 52 0
49 51 52 0
53 30 0
53 52 0
-30 -52 -53 0
27 53 -54 0
-27 -53 -54 0
27 -53 54 0
-27 53 54 0
-55 -20 -56 0
55 20 -56 0
-55 20 56 0
55 -20 56 0
-57 56 0
-57 -36 0
-56 36 57 0
-58 -29 0
-58 -42 0
29 42 58 0
-59 -10 0
-59 58 0
10 -58 59 0
-60 -57 0
-60 59 0
57 -59 60 0
-61 36 0
-61 3 0
-36 -3 61 0
-62 -60 0
-62 -61 0
60 61 62 0
1 -23 -63 0
-1 23 -63 0
1 23 63 0
-1 -23 63 0
-64 -63 0
-64 -41 0
63 41 64 0
-64 -41 -65 0
64 41 -65 0
-64 41 65 0
64 -41 65 0
-66 -64 0
-66 -65 0
64 65 66 0
-67 -62 0
-67 66 0
62 -66 67 0
54 67 -68 0
-54 -67 -68 0
54 -67 68 0
-54 67 68 0
10 9 -69 0
-10 -9 -69 0
10 -9 69 0
-10 9 69 0
-70 23 0
-70 42 0
-23 -42 70 0
57 20 -71 0
-57 -20 -71 0
57 -20 71 0
-57 20 71 0
72 -70 0
72 71 0
70 -71 -72 0
73 -69 0
73 72 0
69 -72 -73 0
-64 -32 -74 0
64 32 -74 0
-64 32 74 0
64 -32 74 0
75 73 0
75 74 0
-73 -74 -75 0
-76 9 0
-76 20 0
-9 -20 76 0
76 -13 -77 0
-76 13 -77 0
76 13 77 0
-76 -13 77 0
75 77 -78 0
-75 -77 -78 0
75 -77 78 0
-75 77 78 0
-79 42 0
-79 -6 0
-42 6 79 0
-41 79 -80 0
41 -79 -80 0
-41 -79 80 0
41 79 80 0
-81 7 0
-81 -31 0
-7 31 81 0
-82 -80 0
-82 -81 0
80 81 82 0
78 82 -83 0
-78 -82 -83 0
78 -82 83 0
-78 82 83 0
84 -79 0
84 23 0
79 -23 -84 0
-85 -84 0
-85 -3 0
84 3 85 0
86 -5 0
86 37 0
5 -37 -86 0
87 -86 0
87 42 0
86 -42 -87 0
-88 -85 0
-88 87 0
85 -87 88 0
-89 23 0
-89 -79 0
-23 79 89 0
-89 41 -90 0
89 -41 -90 0
-89 -41 90 0
89 41 90 0
20 28 -91 0
-20 -28 -91 0
20 -28 91 0
-20 28 91 0
-42 20 -92 0
42 -20 -92 0
-42 -20 92 0
42 20 92 0
93 -92 0
93 -1 0
92 1 -93 0
94 23 0
94 -42 0
-23 42 -94 0
-93 94 -95 0
93 -94 -95 0
-93 -94 95 0
93 94 95 0
96 91 0
96 95 0
-91 -95 -96 0
-97 -90 0
-97 -96 0
90 96 97 0
-98 -88 0
-98 -97 0
88 97 98 0
99 83 0
99 98 0
-83 -98 -99 0
-100 68 0
-100 -99 0
-68 99 100 0
-36 -47 30 -51 35 49 0
-92 11 17 3 -74 0
-86 -38 0
-13 -61 -15 0
57 -18 -98 0
-81 88 55 0
-32 4 -29 0
12 96 0
22 -54 0
-100 -72 9 11 -77 0
79 82 -40 0
-21 19 72 0
-10 -39 -42 0
79 -35 32 -22 -52 0
52 95 0
88 -32 -51 -60 -91 0
82 18 -21 11 0
-75 -29 -80 14 0
-4 -7 0
-30 -21 23 45 1 0
-37 90 78 -39 44 0
-94 -62 1 0
-46 -9 0
-70 -36 0
-78 -99 45 0
-6 -64 0
35 -29 67 0
-81 -2 -21 -22 87 99 0
-8 94 6 -55 -36 0
78 -73 -13 71 -63 0
56 47 57 84 0
-62 -28 -60 -61 0
-12 -74 -37 87 -15 0
5 93 30 0
75 72 33 87 45 0
89 52 0
41 96 49 14 94 0
-78 -74 18 -13 16 0
-22 -33 25 0
-77 3 -81 0
-81 56 -36 92 0
-73 -86 -90 -58 -20 0
100 0
